####################################################################### 
# 
# This file contains crystal structure data downloaded from the 
# Cambridge Structural Database (CSD) hosted by the Cambridge 
# Crystallographic Data Centre (CCDC).
# 
# Full information about CCDC data access policies and citation 
# guidelines are available at http://www.ccdc.cam.ac.uk/access/V1 
# 
# Audit and citation data items may have been added by the CCDC. 
# Please retain this information to preserve the provenance of 
# this file and to allow appropriate attribution of the data. 
# 
#######################################################################

data_cu_BruecknerJK_153F40_0m
_database_code_depnum_ccdc_archive 'CCDC 1979688'
loop_
_citation_id
_citation_doi
_citation_year
1 10.1021/acs.orglett.0c01078 2020
loop_
_audit_author_name
_audit_author_address
'Daniel Kratzert'
;University of Freiburg
Germany
;
_audit_update_record             
;
2020-01-23 deposited with the CCDC.	2020-04-19 downloaded from the CCDC.
;
_publ_section_references         
;
Sheldrick, G.M. (2015). Acta Cryst. A71, 3-8.
Sheldrick, G.M. (2015). Acta Cryst. C71, 3-8.
;
_audit_contact_author_address    
;

Albert-Ludwigs-Universita\"t Freiburg
Institut fu\"r Anorganische und Analytische Chemie
Albertstra\&se 21
Freiburg i. Br.
79104
Germany
;
_audit_contact_author_email      daniel.kratzert@ac.uni-freiburg.de
_audit_contact_author_name       'Dr. Daniel Kratzert'
_audit_contact_author_phone      +497612036156
_publ_contact_author_id_orcid    https://orcid.org/0000-0003-0970-9780
_audit_creation_method           
;
FinalCif by Daniel Kratzert, Freiburg 2019,
https://github.com/dkratzert/FinalCif
;
_shelx_SHELXL_version_number     2018/3
_chemical_name_systematic        ?
_chemical_name_common            ?
_chemical_formula_sum            'C38.50 H40 O12.50'
_chemical_formula_moiety         ?
_chemical_formula_weight         702.70
_chemical_melting_point          ?
_chemical_absolute_configuration ad
_space_group_crystal_system      orthorhombic
_space_group_IT_number           18
_space_group_name_H-M_alt        'P 21 21 2'
_space_group_name_Hall           'P 2 2ab'
_shelx_space_group_comment       
;
The symmetry employed for this shelxl refinement is uniquely defined
by the following loop, which should always be used as a source of
symmetry information in preference to the above space-group names.
They are only intended as comments.
;

loop_
_space_group_symop_operation_xyz
'x, y, z'
'-x, -y, z'
'-x+1/2, y+1/2, -z'
'x+1/2, -y+1/2, -z'

_cell_length_a                   19.678(3)
_cell_length_b                   37.0229(9)
_cell_length_c                   4.7720(4)
_cell_angle_alpha                90
_cell_angle_beta                 90
_cell_angle_gamma                90
_cell_volume                     3476.6(7)
_cell_formula_units_Z            4
_cell_measurement_temperature    102(2)
_cell_measurement_reflns_used    9624
_cell_measurement_theta_min      2.547
_cell_measurement_theta_max      78.8605
_exptl_crystal_description       plate
_exptl_crystal_colour            colourless
_exptl_crystal_recrystallization_method 
'The compund was crystallized fromhot methanol by cooling'
_exptl_crystal_density_meas      ?
_exptl_crystal_density_method    ?
_exptl_crystal_density_diffrn    1.343
_exptl_crystal_F_000             1484
_exptl_crystal_size_max          0.220
_exptl_crystal_size_mid          0.100
_exptl_crystal_size_min          0.040
_exptl_absorpt_coefficient_mu    0.838
_exptl_absorpt_correction_type   multi-scan
_exptl_absorpt_correction_T_min  0.7697
_exptl_absorpt_correction_T_max  0.9288
_exptl_absorpt_process_details   
;
 SADABS 2016/2: Krause, L., Herbst-Irmer, R., Sheldrick G.M. & Stalke D.,
 J. Appl. Cryst. 48 (2015) 3-10
;
_exptl_absorpt_special_details   ?
_shelx_estimated_absorpt_T_min   ?
_shelx_estimated_absorpt_T_max   ?
_exptl_transmission_factor_min   ?
_exptl_transmission_factor_max   ?
_exptl_special_details           ?
_diffrn_ambient_temperature      102(2)
_diffrn_ambient_environment      ?
_diffrn_radiation_type           CuK\a
_diffrn_radiation_wavelength     1.54178
_diffrn_radiation_monochromator  'mirror optics'
_olex2_diffrn_ambient_temperature_device 'Oxford Cryostream 800'
_diffrn_radiation_probe          x-ray
_diffrn_source                   'microfocus sealed X-ray tube'
_diffrn_source_type              'Incoatec I\ms'
_diffrn_source_voltage           50.0
_diffrn_source_current           1.1
_diffrn_detector                 CPAD
_diffrn_detector_type            'Bruker PHOTON III'
_diffrn_detector_area_resol_mean 7.41
_diffrn_measurement_device       'three-circle diffractometer'
_diffrn_measurement_device_type  'Bruker D8 VENTURE dual wavelength Mo/Cu'
_diffrn_measurement_method       '\w and \f scans'
_diffrn_measurement_specimen_support 'MiTeGen micromount'
_diffrn_reflns_number            51638
_diffrn_reflns_av_unetI/netI     0.0149
_diffrn_reflns_av_R_equivalents  0.0302
_diffrn_reflns_theta_min         2.387
_diffrn_reflns_theta_max         78.476
_diffrn_reflns_theta_full        67.679
_diffrn_reflns_limit_h_min       -24
_diffrn_reflns_limit_h_max       24
_diffrn_reflns_limit_k_min       -47
_diffrn_reflns_limit_k_max       46
_diffrn_reflns_limit_l_min       -5
_diffrn_reflns_limit_l_max       5
_diffrn_measured_fraction_theta_max 0.990
_diffrn_measured_fraction_theta_full 0.999
_diffrn_reflns_Laue_measured_fraction_max 0.990
_diffrn_reflns_Laue_measured_fraction_full 0.999
_diffrn_reflns_point_group_measured_fraction_max 0.985
_diffrn_reflns_point_group_measured_fraction_full 1.000
_reflns_number_total             7338
_reflns_number_gt                7290
_reflns_threshold_expression     'I > 2\s(I)'
_reflns_Friedel_coverage         0.708
_reflns_Friedel_fraction_max     0.978
_reflns_Friedel_fraction_full    1.000
_reflns_special_details          
;
 Reflections were merged by SHELXL according to the crystal
 class for the calculation of statistics and refinement.
 
 _reflns_Friedel_fraction is defined as the number of unique
 Friedel pairs measured divided by the number that would be
 possible theoretically, ignoring centric projections and
 systematic absences.
;
_computing_data_collection       'Bruker BIS V6.2.12/2019-08-12'
_computing_cell_refinement       'SAINT V8.40A'
_computing_data_reduction        'SAINT V8.40A'
_computing_structure_solution    
'SHELXT - CRYSTAL STRUCTURE SOLUTION - VERSION 2014/5'
_computing_structure_refinement  'SHELXL-2018/3 (Sheldrick, 2018)'
_computing_molecular_graphics    ?
_computing_publication_material  ?
_refine_special_details          
;
The methanol molecule is disordered around a special position and thus half
occupied.
;
_refine_ls_structure_factor_coef Fsqd
_refine_ls_matrix_type           full
_refine_ls_weighting_scheme      calc
_refine_ls_weighting_details     
'w=1/[\s^2^(Fo^2^)+(0.0294P)^2^+1.7310P] where P=(Fo^2^+2Fc^2^)/3'
_atom_sites_solution_primary     direct
_atom_sites_solution_secondary   ?
_atom_sites_solution_hydrogens   geom
_refine_ls_hydrogen_treatment    constr
_refine_ls_number_reflns         7338
_refine_ls_number_parameters     479
_refine_ls_number_restraints     5
_refine_ls_R_factor_all          0.0368
_refine_ls_R_factor_gt           0.0364
_refine_ls_wR_factor_ref         0.0919
_refine_ls_wR_factor_gt          0.0917
_refine_ls_goodness_of_fit_ref   1.198
_refine_ls_restrained_S_all      1.199
_refine_ls_shift/su_max          0.000
_refine_ls_shift/su_mean         0.000
_refine_diff_density_max         0.262
_refine_diff_density_min         -0.209
_refine_diff_density_rms         0.044
_refine_ls_extinction_method     none
_refine_ls_extinction_coef       .
_refine_ls_abs_structure_Flack   0.04(2)
_refine_ls_abs_structure_details 
;
 Flack x determined using 2955 quotients [(I+)-(I-)]/[(I+)+(I-)]
 (Parsons, Flack and Wagner, Acta Cryst. B69 (2013) 249-259).
;

loop_
_atom_type_symbol
_atom_type_description
_atom_type_scat_dispersion_real
_atom_type_scat_dispersion_imag
_atom_type_scat_source
C C 0.0181 0.0091 'International Tables Vol C Tables 4.2.6.8 and 6.1.1.4'
H H 0.0000 0.0000 'International Tables Vol C Tables 4.2.6.8 and 6.1.1.4'
O O 0.0492 0.0322 'International Tables Vol C Tables 4.2.6.8 and 6.1.1.4'

_geom_special_details            
;
 All esds (except the esd in the dihedral angle between two l.s. planes)
 are estimated using the full covariance matrix.  The cell esds are taken
 into account individually in the estimation of esds in distances, angles
 and torsion angles; correlations between esds in cell parameters are only
 used when they are defined by crystal symmetry.  An approximate (isotropic)
 treatment of cell esds is used for estimating esds involving l.s. planes.
;

loop_
_atom_site_label
_atom_site_type_symbol
_atom_site_fract_x
_atom_site_fract_y
_atom_site_fract_z
_atom_site_U_iso_or_equiv
_atom_site_adp_type
_atom_site_occupancy
_atom_site_site_symmetry_order
_atom_site_calc_flag
_atom_site_refinement_flags_posn
_atom_site_refinement_flags_adp
_atom_site_refinement_flags_occupancy
_atom_site_disorder_assembly
_atom_site_disorder_group
C1 C 0.00232(11) 0.37061(7) 0.3615(5) 0.0240(5) Uani 1 1 d . . . . .
H1 H -0.004416 0.382450 0.547826 0.029 Uiso 1 1 calc R U . . .
O1 O 0.02619(8) 0.39536(5) 0.1512(4) 0.0239(4) Uani 1 1 d . . . . .
C2 C 0.04929(11) 0.33785(7) 0.3773(5) 0.0222(5) Uani 1 1 d . . . . .
H2 H 0.041865 0.324706 0.557764 0.027 Uiso 1 1 calc R U . . .
O2 O -0.06534(10) 0.30877(7) -0.1251(5) 0.0444(5) Uani 1 1 d . . . . .
C3 C 0.12367(11) 0.34684(6) 0.3437(5) 0.0188(4) Uani 1 1 d . . . . .
O3 O 0.02748(9) 0.31504(5) 0.1395(4) 0.0280(4) Uani 1 1 d . . . . .
C4 C 0.17159(12) 0.31982(6) 0.3825(5) 0.0191(4) Uani 1 1 d . . . . .
O4 O 0.14805(8) 0.28609(4) 0.4503(4) 0.0215(3) Uani 1 1 d . . . . .
O5 O 0.27337(9) 0.26484(4) 0.3552(5) 0.0296(4) Uani 1 1 d . . . . .
C5 C 0.24236(11) 0.32684(6) 0.3402(5) 0.0191(4) Uani 1 1 d . . . . .
O6 O 0.23152(8) 0.42552(4) 0.1932(3) 0.0192(3) Uani 1 1 d . . . . .
C6 C 0.29485(12) 0.29983(6) 0.3375(6) 0.0235(5) Uani 1 1 d . . . . .
O7 O 0.73086(9) 0.47914(4) 0.6156(4) 0.0278(4) Uani 1 1 d . . . . .
C7 C 0.36205(12) 0.30935(6) 0.3087(6) 0.0246(5) Uani 1 1 d . . . . .
H7 H 0.395856 0.291035 0.307928 0.030 Uiso 1 1 calc R U . . .
O8 O 0.89175(9) 0.42106(5) 0.7874(4) 0.0336(4) Uani 1 1 d . . . . .
C8 C 0.38186(12) 0.34604(6) 0.2800(6) 0.0222(5) Uani 1 1 d . . . . .
O9 O 0.80099(8) 0.40908(4) 0.5219(4) 0.0222(4) Uani 1 1 d . . . . .
C9 C 0.33258(11) 0.37240(6) 0.2656(5) 0.0199(4) Uani 1 1 d . . . . .
H9 H 0.345488 0.396914 0.240601 0.024 Uiso 1 1 calc R U . . .
O10 O 0.71633(8) 0.36267(4) 0.1160(4) 0.0267(4) Uani 1 1 d . . . . .
C10 C 0.26263(12) 0.36330(6) 0.2877(5) 0.0195(4) Uani 1 1 d . . . . .
O11 O 0.61510(9) 0.31944(5) -0.0335(4) 0.0284(4) Uani 1 1 d . . . . .
C11 C 0.21156(11) 0.39014(6) 0.2511(5) 0.0180(4) Uani 1 1 d . . . . .
O12 O 0.52253(8) 0.45508(4) 0.5609(3) 0.0189(3) Uani 1 1 d . . . . .
C12 C 0.14374(12) 0.38230(6) 0.2726(5) 0.0194(4) Uani 1 1 d . . . . .
C13 C 0.09056(11) 0.41131(6) 0.2202(5) 0.0202(5) Uani 1 1 d . . . . .
H13 H 0.105712 0.425160 0.051506 0.024 Uiso 1 1 calc R U . . .
C14 C -0.06280(13) 0.35437(8) 0.2459(6) 0.0323(6) Uani 1 1 d . . . . .
H14A H -0.092167 0.345114 0.398248 0.039 Uiso 1 1 calc R U . . .
H14B H -0.088559 0.372267 0.134159 0.039 Uiso 1 1 calc R U . . .
C15 C -0.03688(13) 0.32419(8) 0.0651(6) 0.0319(6) Uani 1 1 d . . . . .
C16 C 0.16202(14) 0.27563(7) 0.7376(6) 0.0278(5) Uani 1 1 d . . . . .
H16A H 0.157773 0.249358 0.755926 0.042 Uiso 1 1 calc R U . . .
H16B H 0.129459 0.287461 0.862909 0.042 Uiso 1 1 calc R U . . .
H16C H 0.208276 0.282987 0.787893 0.042 Uiso 1 1 calc R U . . .
C17 C 0.32322(15) 0.23737(6) 0.3063(8) 0.0377(7) Uani 1 1 d . . . . .
H17A H 0.300883 0.213739 0.298159 0.057 Uiso 1 1 calc R U . . .
H17B H 0.356507 0.237497 0.459030 0.057 Uiso 1 1 calc R U . . .
H17C H 0.346375 0.242092 0.128199 0.057 Uiso 1 1 calc R U . . .
C18 C 0.24752(12) 0.43131(7) -0.0987(5) 0.0240(5) Uani 1 1 d . . . . .
H18A H 0.252400 0.457250 -0.134199 0.036 Uiso 1 1 calc R U . . .
H18B H 0.210834 0.421604 -0.215474 0.036 Uiso 1 1 calc R U . . .
H18C H 0.290174 0.418994 -0.144651 0.036 Uiso 1 1 calc R U . . .
C19 C 0.08325(14) 0.43854(7) 0.4585(6) 0.0286(5) Uani 1 1 d . . . . .
H19A H 0.126943 0.450553 0.490553 0.043 Uiso 1 1 calc R U . . .
H19B H 0.069194 0.425955 0.629616 0.043 Uiso 1 1 calc R U . . .
H19C H 0.048924 0.456593 0.408303 0.043 Uiso 1 1 calc R U . . .
C20 C 0.77127(12) 0.46820(7) 0.3822(6) 0.0275(5) Uani 1 1 d . . . . .
H20 H 0.764914 0.484217 0.215471 0.033 Uiso 1 1 calc R U . . .
C21 C 0.75888(11) 0.42840(6) 0.3143(5) 0.0214(5) Uani 1 1 d . . . . .
H21 H 0.775876 0.423023 0.121291 0.026 Uiso 1 1 calc R U . . .
C22 C 0.68592(11) 0.41693(6) 0.3385(5) 0.0192(4) Uani 1 1 d . . . . .
C23 C 0.66612(11) 0.38373(6) 0.2329(5) 0.0203(5) Uani 1 1 d . . . . .
C24 C 0.59663(11) 0.37266(6) 0.2381(5) 0.0193(4) Uani 1 1 d . . . . .
C25 C 0.56976(12) 0.34054(6) 0.1056(6) 0.0223(5) Uani 1 1 d . . . . .
C26 C 0.50150(12) 0.33263(6) 0.1204(6) 0.0238(5) Uani 1 1 d . . . . .
H26 H 0.484940 0.311299 0.033398 0.029 Uiso 1 1 calc R U . . .
C27 C 0.45523(11) 0.35571(6) 0.2630(5) 0.0210(5) Uani 1 1 d . . . . .
C28 C 0.47865(11) 0.38691(6) 0.3818(5) 0.0195(4) Uani 1 1 d . . . . .
H28 H 0.447679 0.402561 0.474499 0.023 Uiso 1 1 calc R U . . .
C29 C 0.54863(11) 0.39632(6) 0.3689(5) 0.0172(4) Uani 1 1 d . . . . .
C30 C 0.57071(11) 0.43045(6) 0.4717(5) 0.0178(4) Uani 1 1 d . . . . .
C31 C 0.63779(11) 0.44097(6) 0.4568(5) 0.0179(4) Uani 1 1 d . . . . .
C32 C 0.65905(11) 0.47805(6) 0.5607(5) 0.0212(5) Uani 1 1 d . . . . .
H32 H 0.635558 0.482025 0.743976 0.025 Uiso 1 1 calc R U . . .
C33 C 0.84430(13) 0.46775(7) 0.4856(8) 0.0366(7) Uani 1 1 d . . . . .
H33A H 0.876675 0.470540 0.328242 0.044 Uiso 1 1 calc R U . . .
H33B H 0.852403 0.487182 0.624163 0.044 Uiso 1 1 calc R U . . .
C34 C 0.85057(11) 0.43104(6) 0.6186(5) 0.0226(5) Uani 1 1 d . . . . .
C35 C 0.74027(13) 0.33415(7) 0.2969(7) 0.0340(6) Uani 1 1 d . . . . .
H35A H 0.777024 0.320965 0.203420 0.051 Uiso 1 1 calc R U . . .
H35B H 0.702804 0.317537 0.337910 0.051 Uiso 1 1 calc R U . . .
H35C H 0.757238 0.344594 0.472124 0.051 Uiso 1 1 calc R U . . .
C36 C 0.58889(14) 0.28982(7) -0.1954(6) 0.0308(6) Uani 1 1 d . . . . .
H36A H 0.626565 0.277149 -0.286890 0.046 Uiso 1 1 calc R U . . .
H36B H 0.557544 0.299040 -0.338024 0.046 Uiso 1 1 calc R U . . .
H36C H 0.564690 0.273068 -0.071573 0.046 Uiso 1 1 calc R U . . .
C37 C 0.50029(14) 0.45070(7) 0.8456(6) 0.0291(5) Uani 1 1 d . . . . .
H37A H 0.460892 0.466274 0.880081 0.044 Uiso 1 1 calc R U . . .
H37B H 0.537214 0.457407 0.973257 0.044 Uiso 1 1 calc R U . . .
H37C H 0.487593 0.425446 0.877807 0.044 Uiso 1 1 calc R U . . .
C38 C 0.63748(12) 0.50904(6) 0.3660(6) 0.0242(5) Uani 1 1 d . . . . .
H38A H 0.587772 0.510127 0.356932 0.036 Uiso 1 1 calc R U . . .
H38B H 0.655813 0.504821 0.177915 0.036 Uiso 1 1 calc R U . . .
H38C H 0.655101 0.531940 0.439052 0.036 Uiso 1 1 calc R U . . .
O13 O 0.9588(2) 0.48086(11) 1.0443(9) 0.0337(9) Uani 0.5 1 d . . P A -1
H13A H 0.955437 0.460236 0.972254 0.051 Uiso 0.5 1 calc R U P A -1
C39 C 1.0123(4) 0.5002(5) 0.9115(11) 0.030(2) Uani 0.5 1 d . . P A -1
H39A H 1.012625 0.525207 0.978836 0.045 Uiso 0.5 1 calc R U P A -1
H39B H 1.005378 0.499988 0.708113 0.045 Uiso 0.5 1 calc R U P A -1
H39C H 1.055913 0.488733 0.955932 0.045 Uiso 0.5 1 calc R U P A -1

loop_
_atom_site_aniso_label
_atom_site_aniso_U_11
_atom_site_aniso_U_22
_atom_site_aniso_U_33
_atom_site_aniso_U_23
_atom_site_aniso_U_13
_atom_site_aniso_U_12
C1 0.0161(10) 0.0356(13) 0.0203(12) 0.0055(11) 0.0005(9) 0.0005(9)
O1 0.0166(7) 0.0350(9) 0.0203(8) 0.0066(7) -0.0039(7) -0.0026(7)
C2 0.0195(11) 0.0289(12) 0.0182(12) 0.0003(10) -0.0007(9) -0.0052(9)
O2 0.0321(10) 0.0665(14) 0.0345(11) 0.0009(11) -0.0097(9) -0.0267(10)
C3 0.0165(10) 0.0243(11) 0.0156(10) -0.0011(9) -0.0004(8) -0.0027(8)
O3 0.0214(8) 0.0369(9) 0.0256(9) -0.0035(8) -0.0015(7) -0.0121(7)
C4 0.0219(11) 0.0178(10) 0.0178(11) -0.0032(9) -0.0010(9) -0.0039(8)
O4 0.0233(8) 0.0189(7) 0.0223(8) 0.0013(7) -0.0002(7) -0.0074(6)
O5 0.0248(8) 0.0133(7) 0.0506(12) 0.0006(8) 0.0049(9) -0.0018(6)
C5 0.0185(10) 0.0175(10) 0.0214(11) -0.0015(9) -0.0016(9) -0.0030(8)
O6 0.0222(7) 0.0162(7) 0.0192(8) 0.0020(6) -0.0015(7) -0.0015(6)
C6 0.0251(12) 0.0148(10) 0.0305(13) 0.0006(9) 0.0007(10) -0.0016(9)
O7 0.0230(8) 0.0212(8) 0.0391(11) -0.0012(8) -0.0116(8) -0.0036(6)
C7 0.0188(11) 0.0171(10) 0.0380(14) 0.0037(10) -0.0012(10) 0.0020(8)
O8 0.0233(8) 0.0413(10) 0.0362(11) 0.0092(9) -0.0081(8) -0.0050(8)
C8 0.0181(10) 0.0190(10) 0.0296(13) 0.0005(10) -0.0021(9) -0.0029(8)
O9 0.0164(7) 0.0214(8) 0.0288(9) 0.0029(7) -0.0023(7) -0.0008(6)
C9 0.0183(10) 0.0159(9) 0.0255(12) 0.0012(9) -0.0025(9) -0.0025(8)
O10 0.0183(8) 0.0249(8) 0.0368(10) -0.0033(8) 0.0025(7) 0.0034(6)
C10 0.0200(10) 0.0180(10) 0.0203(11) 0.0004(8) -0.0023(9) -0.0015(8)
O11 0.0216(8) 0.0238(8) 0.0398(11) -0.0114(8) -0.0011(8) 0.0013(7)
C11 0.0200(10) 0.0163(9) 0.0177(11) 0.0008(8) -0.0028(9) -0.0002(8)
O12 0.0197(7) 0.0198(7) 0.0172(8) 0.0006(6) -0.0003(6) 0.0029(6)
C12 0.0205(10) 0.0241(11) 0.0136(10) 0.0000(8) -0.0032(9) 0.0007(9)
C13 0.0159(10) 0.0262(11) 0.0185(11) 0.0029(9) -0.0033(9) 0.0002(9)
C14 0.0172(11) 0.0509(16) 0.0288(14) 0.0128(13) -0.0036(10) -0.0073(11)
C15 0.0203(11) 0.0495(16) 0.0260(14) 0.0078(12) 0.0005(10) -0.0170(11)
C16 0.0382(14) 0.0212(11) 0.0242(13) 0.0016(10) -0.0002(11) -0.0024(10)
C17 0.0344(14) 0.0148(10) 0.064(2) 0.0017(13) 0.0082(14) -0.0003(10)
C18 0.0247(11) 0.0255(11) 0.0219(12) 0.0049(9) -0.0007(9) -0.0026(9)
C19 0.0303(12) 0.0326(13) 0.0228(13) -0.0014(10) -0.0054(11) 0.0114(10)
C20 0.0182(11) 0.0229(11) 0.0415(15) 0.0117(11) -0.0036(11) -0.0053(9)
C21 0.0191(10) 0.0234(11) 0.0218(12) 0.0041(9) -0.0012(9) -0.0020(9)
C22 0.0181(10) 0.0211(10) 0.0185(11) 0.0050(9) -0.0013(9) -0.0028(8)
C23 0.0195(11) 0.0212(10) 0.0203(11) 0.0016(9) 0.0010(9) 0.0011(8)
C24 0.0181(10) 0.0163(10) 0.0234(12) 0.0026(9) -0.0034(9) 0.0011(8)
C25 0.0206(11) 0.0188(10) 0.0276(13) -0.0001(9) -0.0020(10) 0.0024(8)
C26 0.0223(11) 0.0165(10) 0.0326(14) -0.0013(10) -0.0051(10) -0.0013(8)
C27 0.0159(10) 0.0189(10) 0.0281(12) 0.0042(9) -0.0028(9) 0.0000(8)
C28 0.0159(10) 0.0186(10) 0.0241(12) 0.0038(9) -0.0011(9) 0.0017(8)
C29 0.0159(10) 0.0158(9) 0.0200(11) 0.0045(9) -0.0025(9) 0.0008(8)
C30 0.0179(10) 0.0179(10) 0.0175(11) 0.0021(9) -0.0029(9) 0.0021(8)
C31 0.0194(10) 0.0175(10) 0.0168(11) 0.0025(8) -0.0038(9) -0.0013(8)
C32 0.0184(10) 0.0204(10) 0.0247(12) -0.0009(9) -0.0053(9) -0.0014(8)
C33 0.0218(12) 0.0248(12) 0.063(2) 0.0118(13) -0.0097(13) -0.0063(10)
C34 0.0137(10) 0.0276(11) 0.0264(12) 0.0005(10) 0.0019(9) -0.0034(9)
C35 0.0235(12) 0.0231(11) 0.0555(19) -0.0042(12) -0.0076(13) 0.0061(9)
C36 0.0334(13) 0.0249(12) 0.0340(15) -0.0078(11) -0.0063(12) 0.0046(10)
C37 0.0320(13) 0.0376(14) 0.0177(12) -0.0011(11) 0.0008(10) 0.0055(11)
C38 0.0242(11) 0.0177(10) 0.0306(13) -0.0003(10) -0.0031(10) -0.0004(9)
O13 0.0270(18) 0.036(2) 0.039(2) -0.0079(19) 0.0059(18) -0.0034(16)
C39 0.037(7) 0.032(2) 0.022(2) -0.001(3) 0.000(2) 0.000(6)

loop_
_geom_bond_atom_site_label_1
_geom_bond_atom_site_label_2
_geom_bond_distance
_geom_bond_site_symmetry_2
_geom_bond_publ_flag
C1 O1 1.438(3) . ?
C1 C14 1.519(3) . ?
C1 C2 1.527(3) . ?
C1 H1 1.0000 . ?
O1 C13 1.436(3) . ?
C2 O3 1.478(3) . ?
C2 C3 1.510(3) . ?
C2 H2 1.0000 . ?
O2 C15 1.210(4) . ?
C3 C4 1.387(3) . ?
C3 C12 1.412(3) . ?
O3 C15 1.358(3) . ?
C4 O4 1.371(3) . ?
C4 C5 1.431(3) . ?
O4 C16 1.451(3) . ?
O5 C6 1.365(3) . ?
O5 C17 1.432(3) . ?
C5 C10 1.430(3) . ?
C5 C6 1.438(3) . ?
O6 C11 1.395(3) . ?
O6 C18 1.444(3) . ?
C6 C7 1.376(3) . ?
O7 C20 1.427(3) . ?
O7 C32 1.438(3) . ?
C7 C8 1.419(3) . ?
C7 H7 0.9500 . ?
O8 C34 1.201(3) . ?
C8 C9 1.378(3) . ?
C8 C27 1.490(3) . ?
O9 C34 1.351(3) . ?
O9 C21 1.476(3) . ?
C9 C10 1.421(3) . ?
C9 H9 0.9500 . ?
O10 C23 1.377(3) . ?
O10 C35 1.443(3) . ?
C10 C11 1.424(3) . ?
O11 C25 1.359(3) . ?
O11 C36 1.437(3) . ?
C11 C12 1.370(3) . ?
O12 C30 1.382(3) . ?
O12 C37 1.437(3) . ?
C12 C13 1.520(3) . ?
C13 C19 1.526(3) . ?
C13 H13 1.0000 . ?
C14 C15 1.501(4) . ?
C14 H14A 0.9900 . ?
C14 H14B 0.9900 . ?
C16 H16A 0.9800 . ?
C16 H16B 0.9800 . ?
C16 H16C 0.9800 . ?
C17 H17A 0.9800 . ?
C17 H17B 0.9800 . ?
C17 H17C 0.9800 . ?
C18 H18A 0.9800 . ?
C18 H18B 0.9800 . ?
C18 H18C 0.9800 . ?
C19 H19A 0.9800 . ?
C19 H19B 0.9800 . ?
C19 H19C 0.9800 . ?
C20 C33 1.520(3) . ?
C20 C21 1.528(3) . ?
C20 H20 1.0000 . ?
C21 C22 1.502(3) . ?
C21 H21 1.0000 . ?
C22 C23 1.384(3) . ?
C22 C31 1.417(3) . ?
C23 C24 1.428(3) . ?
C24 C29 1.431(3) . ?
C24 C25 1.447(3) . ?
C25 C26 1.377(3) . ?
C26 C27 1.422(3) . ?
C26 H26 0.9500 . ?
C27 C28 1.367(3) . ?
C28 C29 1.422(3) . ?
C28 H28 0.9500 . ?
C29 C30 1.424(3) . ?
C30 C31 1.378(3) . ?
C31 C32 1.518(3) . ?
C32 C38 1.536(3) . ?
C32 H32 1.0000 . ?
C33 C34 1.505(3) . ?
C33 H33A 0.9900 . ?
C33 H33B 0.9900 . ?
C35 H35A 0.9800 . ?
C35 H35B 0.9800 . ?
C35 H35C 0.9800 . ?
C36 H36A 0.9800 . ?
C36 H36B 0.9800 . ?
C36 H36C 0.9800 . ?
C37 H37A 0.9800 . ?
C37 H37B 0.9800 . ?
C37 H37C 0.9800 . ?
C38 H38A 0.9800 . ?
C38 H38B 0.9800 . ?
C38 H38C 0.9800 . ?
O13 C39 1.423(11) . ?
O13 H13A 0.8400 . ?
C39 H39A 0.9800 . ?
C39 H39B 0.9800 . ?
C39 H39C 0.9800 . ?

loop_
_geom_angle_atom_site_label_1
_geom_angle_atom_site_label_2
_geom_angle_atom_site_label_3
_geom_angle
_geom_angle_site_symmetry_1
_geom_angle_site_symmetry_3
_geom_angle_publ_flag
O1 C1 C14 105.9(2) . . ?
O1 C1 C2 110.05(19) . . ?
C14 C1 C2 102.4(2) . . ?
O1 C1 H1 112.6 . . ?
C14 C1 H1 112.6 . . ?
C2 C1 H1 112.6 . . ?
C13 O1 C1 112.98(18) . . ?
O3 C2 C3 109.02(19) . . ?
O3 C2 C1 103.91(19) . . ?
C3 C2 C1 114.0(2) . . ?
O3 C2 H2 109.9 . . ?
C3 C2 H2 109.9 . . ?
C1 C2 H2 109.9 . . ?
C4 C3 C12 120.8(2) . . ?
C4 C3 C2 119.1(2) . . ?
C12 C3 C2 120.1(2) . . ?
C15 O3 C2 109.2(2) . . ?
O4 C4 C3 117.3(2) . . ?
O4 C4 C5 121.8(2) . . ?
C3 C4 C5 120.8(2) . . ?
C4 O4 C16 113.73(18) . . ?
C6 O5 C17 116.85(19) . . ?
C10 C5 C4 117.9(2) . . ?
C10 C5 C6 117.0(2) . . ?
C4 C5 C6 125.0(2) . . ?
C11 O6 C18 113.07(18) . . ?
O5 C6 C7 123.2(2) . . ?
O5 C6 C5 115.9(2) . . ?
C7 C6 C5 120.9(2) . . ?
C20 O7 C32 113.43(19) . . ?
C6 C7 C8 121.3(2) . . ?
C6 C7 H7 119.4 . . ?
C8 C7 H7 119.4 . . ?
C9 C8 C7 119.3(2) . . ?
C9 C8 C27 120.6(2) . . ?
C7 C8 C27 120.1(2) . . ?
C34 O9 C21 110.05(17) . . ?
C8 C9 C10 120.7(2) . . ?
C8 C9 H9 119.7 . . ?
C10 C9 H9 119.7 . . ?
C23 O10 C35 114.0(2) . . ?
C9 C10 C11 120.6(2) . . ?
C9 C10 C5 120.5(2) . . ?
C11 C10 C5 118.9(2) . . ?
C25 O11 C36 117.75(19) . . ?
C12 C11 O6 119.2(2) . . ?
C12 C11 C10 122.0(2) . . ?
O6 C11 C10 118.74(19) . . ?
C30 O12 C37 115.20(18) . . ?
C11 C12 C3 119.2(2) . . ?
C11 C12 C13 120.6(2) . . ?
C3 C12 C13 120.3(2) . . ?
O1 C13 C12 110.75(19) . . ?
O1 C13 C19 111.1(2) . . ?
C12 C13 C19 114.15(19) . . ?
O1 C13 H13 106.8 . . ?
C12 C13 H13 106.8 . . ?
C19 C13 H13 106.8 . . ?
C15 C14 C1 102.5(2) . . ?
C15 C14 H14A 111.3 . . ?
C1 C14 H14A 111.3 . . ?
C15 C14 H14B 111.3 . . ?
C1 C14 H14B 111.3 . . ?
H14A C14 H14B 109.2 . . ?
O2 C15 O3 120.7(3) . . ?
O2 C15 C14 128.7(3) . . ?
O3 C15 C14 110.6(2) . . ?
O4 C16 H16A 109.5 . . ?
O4 C16 H16B 109.5 . . ?
H16A C16 H16B 109.5 . . ?
O4 C16 H16C 109.5 . . ?
H16A C16 H16C 109.5 . . ?
H16B C16 H16C 109.5 . . ?
O5 C17 H17A 109.5 . . ?
O5 C17 H17B 109.5 . . ?
H17A C17 H17B 109.5 . . ?
O5 C17 H17C 109.5 . . ?
H17A C17 H17C 109.5 . . ?
H17B C17 H17C 109.5 . . ?
O6 C18 H18A 109.5 . . ?
O6 C18 H18B 109.5 . . ?
H18A C18 H18B 109.5 . . ?
O6 C18 H18C 109.5 . . ?
H18A C18 H18C 109.5 . . ?
H18B C18 H18C 109.5 . . ?
C13 C19 H19A 109.5 . . ?
C13 C19 H19B 109.5 . . ?
H19A C19 H19B 109.5 . . ?
C13 C19 H19C 109.5 . . ?
H19A C19 H19C 109.5 . . ?
H19B C19 H19C 109.5 . . ?
O7 C20 C33 106.1(2) . . ?
O7 C20 C21 110.49(19) . . ?
C33 C20 C21 102.07(19) . . ?
O7 C20 H20 112.5 . . ?
C33 C20 H20 112.5 . . ?
C21 C20 H20 112.5 . . ?
O9 C21 C22 110.36(18) . . ?
O9 C21 C20 103.62(18) . . ?
C22 C21 C20 114.1(2) . . ?
O9 C21 H21 109.5 . . ?
C22 C21 H21 109.5 . . ?
C20 C21 H21 109.5 . . ?
C23 C22 C31 121.0(2) . . ?
C23 C22 C21 119.5(2) . . ?
C31 C22 C21 119.5(2) . . ?
O10 C23 C22 116.6(2) . . ?
O10 C23 C24 122.1(2) . . ?
C22 C23 C24 121.2(2) . . ?
C23 C24 C29 117.6(2) . . ?
C23 C24 C25 125.3(2) . . ?
C29 C24 C25 116.9(2) . . ?
O11 C25 C26 122.9(2) . . ?
O11 C25 C24 116.5(2) . . ?
C26 C25 C24 120.6(2) . . ?
C25 C26 C27 121.4(2) . . ?
C25 C26 H26 119.3 . . ?
C27 C26 H26 119.3 . . ?
C28 C27 C26 119.4(2) . . ?
C28 C27 C8 120.5(2) . . ?
C26 C27 C8 120.1(2) . . ?
C27 C28 C29 121.0(2) . . ?
C27 C28 H28 119.5 . . ?
C29 C28 H28 119.5 . . ?
C28 C29 C30 119.9(2) . . ?
C28 C29 C24 120.5(2) . . ?
C30 C29 C24 119.48(19) . . ?
C31 C30 O12 119.1(2) . . ?
C31 C30 C29 121.7(2) . . ?
O12 C30 C29 118.83(19) . . ?
C30 C31 C22 118.9(2) . . ?
C30 C31 C32 120.2(2) . . ?
C22 C31 C32 120.9(2) . . ?
O7 C32 C31 110.83(18) . . ?
O7 C32 C38 111.15(19) . . ?
C31 C32 C38 113.68(19) . . ?
O7 C32 H32 106.9 . . ?
C31 C32 H32 106.9 . . ?
C38 C32 H32 106.9 . . ?
C34 C33 C20 102.96(19) . . ?
C34 C33 H33A 111.2 . . ?
C20 C33 H33A 111.2 . . ?
C34 C33 H33B 111.2 . . ?
C20 C33 H33B 111.2 . . ?
H33A C33 H33B 109.1 . . ?
O8 C34 O9 122.1(2) . . ?
O8 C34 C33 128.0(2) . . ?
O9 C34 C33 109.9(2) . . ?
O10 C35 H35A 109.5 . . ?
O10 C35 H35B 109.5 . . ?
H35A C35 H35B 109.5 . . ?
O10 C35 H35C 109.5 . . ?
H35A C35 H35C 109.5 . . ?
H35B C35 H35C 109.5 . . ?
O11 C36 H36A 109.5 . . ?
O11 C36 H36B 109.5 . . ?
H36A C36 H36B 109.5 . . ?
O11 C36 H36C 109.5 . . ?
H36A C36 H36C 109.5 . . ?
H36B C36 H36C 109.5 . . ?
O12 C37 H37A 109.5 . . ?
O12 C37 H37B 109.5 . . ?
H37A C37 H37B 109.5 . . ?
O12 C37 H37C 109.5 . . ?
H37A C37 H37C 109.5 . . ?
H37B C37 H37C 109.5 . . ?
C32 C38 H38A 109.5 . . ?
C32 C38 H38B 109.5 . . ?
H38A C38 H38B 109.5 . . ?
C32 C38 H38C 109.5 . . ?
H38A C38 H38C 109.5 . . ?
H38B C38 H38C 109.5 . . ?
C39 O13 H13A 109.5 . . ?
O13 C39 H39A 109.5 . . ?
O13 C39 H39B 109.5 . . ?
H39A C39 H39B 109.5 . . ?
O13 C39 H39C 109.5 . . ?
H39A C39 H39C 109.5 . . ?
H39B C39 H39C 109.5 . . ?

loop_
_geom_torsion_atom_site_label_1
_geom_torsion_atom_site_label_2
_geom_torsion_atom_site_label_3
_geom_torsion_atom_site_label_4
_geom_torsion
_geom_torsion_site_symmetry_1
_geom_torsion_site_symmetry_2
_geom_torsion_site_symmetry_3
_geom_torsion_site_symmetry_4
_geom_torsion_publ_flag
C14 C1 O1 C13 -175.9(2) . . . . ?
C2 C1 O1 C13 -66.0(3) . . . . ?
O1 C1 C2 O3 -80.0(2) . . . . ?
C14 C1 C2 O3 32.3(2) . . . . ?
O1 C1 C2 C3 38.6(3) . . . . ?
C14 C1 C2 C3 150.9(2) . . . . ?
O3 C2 C3 C4 -70.9(3) . . . . ?
C1 C2 C3 C4 173.5(2) . . . . ?
O3 C2 C3 C12 108.9(2) . . . . ?
C1 C2 C3 C12 -6.7(3) . . . . ?
C3 C2 O3 C15 -143.1(2) . . . . ?
C1 C2 O3 C15 -21.2(2) . . . . ?
C12 C3 C4 O4 -179.8(2) . . . . ?
C2 C3 C4 O4 -0.1(3) . . . . ?
C12 C3 C4 C5 -2.6(4) . . . . ?
C2 C3 C4 C5 177.2(2) . . . . ?
C3 C4 O4 C16 -108.9(2) . . . . ?
C5 C4 O4 C16 73.9(3) . . . . ?
O4 C4 C5 C10 -176.1(2) . . . . ?
C3 C4 C5 C10 6.8(3) . . . . ?
O4 C4 C5 C6 6.0(4) . . . . ?
C3 C4 C5 C6 -171.1(2) . . . . ?
C17 O5 C6 C7 -7.9(4) . . . . ?
C17 O5 C6 C5 169.9(3) . . . . ?
C10 C5 C6 O5 -172.6(2) . . . . ?
C4 C5 C6 O5 5.3(4) . . . . ?
C10 C5 C6 C7 5.2(4) . . . . ?
C4 C5 C6 C7 -176.8(3) . . . . ?
O5 C6 C7 C8 177.5(3) . . . . ?
C5 C6 C7 C8 -0.2(4) . . . . ?
C6 C7 C8 C9 -3.6(4) . . . . ?
C6 C7 C8 C27 177.1(3) . . . . ?
C7 C8 C9 C10 1.9(4) . . . . ?
C27 C8 C9 C10 -178.7(2) . . . . ?
C8 C9 C10 C11 -175.1(2) . . . . ?
C8 C9 C10 C5 3.3(4) . . . . ?
C4 C5 C10 C9 175.1(2) . . . . ?
C6 C5 C10 C9 -6.8(3) . . . . ?
C4 C5 C10 C11 -6.4(3) . . . . ?
C6 C5 C10 C11 171.7(2) . . . . ?
C18 O6 C11 C12 -98.9(2) . . . . ?
C18 O6 C11 C10 81.4(3) . . . . ?
C9 C10 C11 C12 -179.6(2) . . . . ?
C5 C10 C11 C12 1.9(4) . . . . ?
C9 C10 C11 O6 0.0(3) . . . . ?
C5 C10 C11 O6 -178.5(2) . . . . ?
O6 C11 C12 C3 -177.2(2) . . . . ?
C10 C11 C12 C3 2.5(4) . . . . ?
O6 C11 C12 C13 2.9(3) . . . . ?
C10 C11 C12 C13 -177.4(2) . . . . ?
C4 C3 C12 C11 -2.2(3) . . . . ?
C2 C3 C12 C11 178.1(2) . . . . ?
C4 C3 C12 C13 177.8(2) . . . . ?
C2 C3 C12 C13 -2.0(3) . . . . ?
C1 O1 C13 C12 56.3(2) . . . . ?
C1 O1 C13 C19 -71.7(2) . . . . ?
C11 C12 C13 O1 158.6(2) . . . . ?
C3 C12 C13 O1 -21.3(3) . . . . ?
C11 C12 C13 C19 -75.2(3) . . . . ?
C3 C12 C13 C19 104.9(3) . . . . ?
O1 C1 C14 C15 84.1(2) . . . . ?
C2 C1 C14 C15 -31.2(3) . . . . ?
C2 O3 C15 O2 -179.6(2) . . . . ?
C2 O3 C15 C14 0.8(3) . . . . ?
C1 C14 C15 O2 -159.6(3) . . . . ?
C1 C14 C15 O3 19.9(3) . . . . ?
C32 O7 C20 C33 -174.99(18) . . . . ?
C32 O7 C20 C21 -65.1(2) . . . . ?
C34 O9 C21 C22 -144.3(2) . . . . ?
C34 O9 C21 C20 -21.7(2) . . . . ?
O7 C20 C21 O9 -80.1(2) . . . . ?
C33 C20 C21 O9 32.3(3) . . . . ?
O7 C20 C21 C22 39.9(3) . . . . ?
C33 C20 C21 C22 152.4(2) . . . . ?
O9 C21 C22 C23 -75.8(3) . . . . ?
C20 C21 C22 C23 167.9(2) . . . . ?
O9 C21 C22 C31 107.2(2) . . . . ?
C20 C21 C22 C31 -9.1(3) . . . . ?
C35 O10 C23 C22 101.2(2) . . . . ?
C35 O10 C23 C24 -80.8(3) . . . . ?
C31 C22 C23 O10 178.4(2) . . . . ?
C21 C22 C23 O10 1.5(3) . . . . ?
C31 C22 C23 C24 0.4(4) . . . . ?
C21 C22 C23 C24 -176.6(2) . . . . ?
O10 C23 C24 C29 179.0(2) . . . . ?
C22 C23 C24 C29 -3.1(3) . . . . ?
O10 C23 C24 C25 -5.3(4) . . . . ?
C22 C23 C24 C25 172.6(2) . . . . ?
C36 O11 C25 C26 6.6(4) . . . . ?
C36 O11 C25 C24 -172.6(2) . . . . ?
C23 C24 C25 O11 0.2(4) . . . . ?
C29 C24 C25 O11 175.9(2) . . . . ?
C23 C24 C25 C26 -179.1(2) . . . . ?
C29 C24 C25 C26 -3.4(3) . . . . ?
O11 C25 C26 C27 -178.7(2) . . . . ?
C24 C25 C26 C27 0.5(4) . . . . ?
C25 C26 C27 C28 1.8(4) . . . . ?
C25 C26 C27 C8 -178.8(2) . . . . ?
C9 C8 C27 C28 36.1(4) . . . . ?
C7 C8 C27 C28 -144.5(3) . . . . ?
C9 C8 C27 C26 -143.3(3) . . . . ?
C7 C8 C27 C26 36.1(4) . . . . ?
C26 C27 C28 C29 -1.0(4) . . . . ?
C8 C27 C28 C29 179.5(2) . . . . ?
C27 C28 C29 C30 174.3(2) . . . . ?
C27 C28 C29 C24 -1.9(4) . . . . ?
C23 C24 C29 C28 -179.9(2) . . . . ?
C25 C24 C29 C28 4.1(3) . . . . ?
C23 C24 C29 C30 3.9(3) . . . . ?
C25 C24 C29 C30 -172.2(2) . . . . ?
C37 O12 C30 C31 -102.1(2) . . . . ?
C37 O12 C30 C29 84.8(3) . . . . ?
C28 C29 C30 C31 -178.4(2) . . . . ?
C24 C29 C30 C31 -2.1(3) . . . . ?
C28 C29 C30 O12 -5.4(3) . . . . ?
C24 C29 C30 O12 170.9(2) . . . . ?
O12 C30 C31 C22 -173.6(2) . . . . ?
C29 C30 C31 C22 -0.6(3) . . . . ?
O12 C30 C31 C32 5.2(3) . . . . ?
C29 C30 C31 C32 178.2(2) . . . . ?
C23 C22 C31 C30 1.5(3) . . . . ?
C21 C22 C31 C30 178.5(2) . . . . ?
C23 C22 C31 C32 -177.3(2) . . . . ?
C21 C22 C31 C32 -0.3(3) . . . . ?
C20 O7 C32 C31 54.4(3) . . . . ?
C20 O7 C32 C38 -73.0(2) . . . . ?
C30 C31 C32 O7 160.4(2) . . . . ?
C22 C31 C32 O7 -20.8(3) . . . . ?
C30 C31 C32 C38 -73.5(3) . . . . ?
C22 C31 C32 C38 105.2(2) . . . . ?
O7 C20 C33 C34 84.5(3) . . . . ?
C21 C20 C33 C34 -31.2(3) . . . . ?
C21 O9 C34 O8 -179.1(2) . . . . ?
C21 O9 C34 C33 1.4(3) . . . . ?
C20 C33 C34 O8 -160.0(3) . . . . ?
C20 C33 C34 O9 19.6(3) . . . . ?
